500
400
320
320
319
318
318
318
318
316
316
315
315
314
314
314
312
311
311
311
311
310
309
309
308
307
307
307
307
306
306
306
305
305
304
304
303
303
302
302
302
302
301
301
301
300
300
300
300
300
299
298
298
298
297
297
297
297
296
296
295
295
295
295
295
294
294
294
294
294
294
294
293
293
292
292
292
292
292
291
291
291
290
289
288
288
287
286
286
286
285
285
284
283
283
282
282
282
282
281
281
280
280
280
276
276
276
276
276
275
275
274
274
273
271
271
270
269
268
268
268
266
266
265
264
263
263
263
262
262
262
261
260
260
258
258
258
258
258
258
257
257
257
257
255
255
254
253
252
252
252
252
252
252
251
251
251
251
250
250
249
249
248
247
247
247
247
246
246
246
246
246
245
244
244
244
243
243
242
242
241
241
241
239
239
238
238
237
236
236
236
236
236
235
235
235
234
233
233
231
231
231
230
228
228
227
227
227
226
226
226
225
225
224
223
223
223
223
223
222
222
222
221
219
219
218
218
218
218
217
214
214
213
213
212
211
211
211
210
210
210
210
209
209
208
208
208
206
206
206
202
202
202
201
201
201
201
200
199
198
198
198
197
197
197
196
196
195
195
194
193
192
192
192
192
191
191
191
191
191
190
190
190
187
187
186
184
184
183
183
182
181
181
181
180
180
179
179
178
176
176
175
175
175
175
175
174
173
173
172
171
171
171
171
170
170
170
169
168
167
167
167
167
167
165
165
163
163
162
162
162
161
161
161
160
160
160
160
159
159
158
158
158
158
157
157
156
155
154
154
152
152
151
151
151
151
150
149
148
148
146
145
145
145
145
144
143
142
142
141
141
140
140
140
139
139
138
138
137
137
137
137
136
136
136
136
135
135
135
135
134
134
133
132
131
130
128
128
128
128
128
127
127
127
126
126
125
125
125
125
125
124
124
124
122
122
121
121
121
121
120
119
118
118
117
116
115
113
113
113
112
112
112
110
110
108
108
108
107
106
106
106
106
105
105
105
104
103
102
101
100
99
98
98
97
97
97
97
96
96
96
95
95
94
94
93
93
93
93
92
92
92
92
92
92
92
92
91
91
91
91
90
90
86
86
86
85
85
85
85
85
84
84
84
83
83
83
83
82
81
81
80
